Gurobi Optimizer version 9.1.2 build v9.1.2rc0 (linux64)
Thread count: 36 physical cores, 72 logical processors, using up to 32 threads
Optimize a model with 12 rows, 57 columns and 590 nonzeros
Model fingerprint: 0xf32eec78
Model has 47 quadratic constraints
Coefficient statistics:
  Matrix range     [2e-05, 3e+00]
  QMatrix range    [1e+00, 1e+00]
  QLMatrix range   [1e+00, 1e+00]
  Objective range  [8e-03, 7e-01]
  Bounds range     [1e+00, 1e+00]
  RHS range        [1e+00, 1e+00]
Presolve removed 9 rows and 0 columns

Continuous model is non-convex -- solving as a MIP.

Presolve removed 9 rows and 0 columns
Presolve time: 0.00s
Presolved: 189 rows, 57 columns, 443 nonzeros
Presolved model has 47 bilinear constraint(s)
Variable types: 57 continuous, 0 integer (0 binary)

Root relaxation: objective -1.743721e+00, 44 iterations, 0.00 seconds

    Nodes    |    Current Node    |     Objective Bounds      |     Work
 Expl Unexpl |  Obj  Depth IntInf | Incumbent    BestBd   Gap | It/Node Time

     0     0   -1.74372    0   38          -   -1.74372      -     -    0s
H    0     0                       0.6147548   -1.74372   384%     -    0s
     0     0   -1.64739    0    1    0.61475   -1.64739   368%     -    0s
H    0     0                      -1.6450460   -1.64739  0.14%     -    0s
     0     0     cutoff    0        -1.64505   -1.64505  0.00%     -    0s

Cutting planes:
  RLT: 25
  BQP: 3

Explored 1 nodes (76 simplex iterations) in 0.01 seconds
Thread count was 32 (of 72 available processors)

Solution count 2: -1.64505 0.614755 
No other solutions better than -1.64505

Optimal solution found (tolerance 1.00e-04)
Best objective -1.645045978473e+00, best bound -1.645045978473e+00, gap 0.0000%

User-callback calls 78, time in user-callback 0.00 sec
Gurobi Optimizer version 9.1.2 build v9.1.2rc0 (linux64)
Thread count: 36 physical cores, 72 logical processors, using up to 32 threads
Optimize a model with 60 rows, 300 columns and 15500 nonzeros
Model fingerprint: 0x6ac25409
Model has 250 quadratic constraints
Coefficient statistics:
  Matrix range     [1e-06, 4e+00]
  QMatrix range    [1e+00, 1e+00]
  QLMatrix range   [1e+00, 1e+00]
  Objective range  [3e-04, 1e+00]
  Bounds range     [1e+00, 1e+00]
  RHS range        [1e+00, 1e+00]
Presolve removed 11 rows and 0 columns

Continuous model is non-convex -- solving as a MIP.

Presolve removed 11 rows and 0 columns
Presolve time: 0.01s
Presolved: 1049 rows, 300 columns, 14162 nonzeros
Presolved model has 250 bilinear constraint(s)
Variable types: 300 continuous, 0 integer (0 binary)

Root relaxation: objective -2.696810e+01, 375 iterations, 0.02 seconds

    Nodes    |    Current Node    |     Objective Bounds      |     Work
 Expl Unexpl |  Obj  Depth IntInf | Incumbent    BestBd   Gap | It/Node Time

     0     0  -26.96810    0  199          -  -26.96810      -     -    0s
     0     0  -24.68187    0  146          -  -24.68187      -     -    0s
     0     0  -24.23680    0  177          -  -24.23680      -     -    0s
     0     0  -24.21360    0  167          -  -24.21360      -     -    0s
     0     0  -24.18026    0  133          -  -24.18026      -     -    0s
     0     0  -24.17290    0  142          -  -24.17290      -     -    0s
     0     0  -24.17272    0  142          -  -24.17272      -     -    0s
     0     0  -24.17198    0  133          -  -24.17198      -     -    0s
H    0     0                     -17.7918444  -24.17198  35.9%     -    0s
H    0     0                     -18.8424613  -24.17198  28.3%     -    0s
     0     2  -24.17198    0  133  -18.84246  -24.17198  28.3%     -    0s
* 1705  1769              47     -21.7863179  -23.11592  6.10%  54.7    1s
* 2698  1868              61     -22.2921520  -22.94338  2.92%  50.9    2s
* 2699  1868              61     -22.2921537  -22.94338  2.92%  50.8    2s
* 3893  1646              44     -22.2921852  -22.67855  1.73%  50.3    2s
* 3896  1646              44     -22.2921863  -22.67855  1.73%  50.3    2s
* 3900  1646              44     -22.2921870  -22.67855  1.73%  50.2    2s
* 4131  1717              48     -22.2924984  -22.67855  1.73%  48.8    3s
* 4256  1717              36     -22.2935375  -22.67855  1.73%  47.9    3s
* 4657  1885              34     -22.2969493  -22.54882  1.13%  45.6    3s
* 4944  1857              39     -22.3087059  -22.33465  0.12%  43.9    3s
* 5245  1681              44     -22.3094611  -22.31810  0.04%  42.2    3s
* 5246  1681              44     -22.3094611  -22.31810  0.04%  42.2    3s
* 5351  1681              42     -22.3094634  -22.31810  0.04%  41.5    3s
* 5556  1681              42     -22.3094642  -22.31810  0.04%  40.3    3s
* 5807  1786              41     -22.3095438  -22.31810  0.04%  38.9    3s
* 5831  1786              40     -22.3099182  -22.31810  0.04%  38.7    3s
* 6009  1786              34     -22.3107678  -22.31810  0.03%  37.8    3s
* 6010  1786              34     -22.3107685  -22.31810  0.03%  37.8    3s
* 6237  1896              42     -22.3117951  -22.31810  0.03%  36.8    3s
* 6540  1896              45     -22.3119100  -22.31810  0.03%  35.3    3s
* 6541  1896              45     -22.3119107  -22.31810  0.03%  35.3    3s
* 6544  1896              46     -22.3122775  -22.31810  0.03%  35.3    3s
* 6597  1896              40     -22.3126886  -22.31810  0.02%  35.0    3s
* 7269  1395              39     -22.3127466  -22.31539  0.01%  32.3    3s
* 7315  1395              44     -22.3132699  -22.31539  0.01%  32.1    3s
* 7317  1395              45     -22.3132822  -22.31539  0.01%  32.1    3s
* 7331  1395              42     -22.3133006  -22.31539  0.01%  32.0    3s
* 7333  1395              43     -22.3133012  -22.31539  0.01%  32.0    3s
* 7366  1395              42     -22.3135520  -22.31539  0.01%  31.9    3s
* 7371  1395              42     -22.3135554  -22.31539  0.01%  31.9    3s

Cutting planes:
  RLT: 65
  BQP: 4
  PSD: 4

Explored 7503 nodes (236232 simplex iterations) in 3.72 seconds
Thread count was 32 (of 72 available processors)

Solution count 10: -22.3136 -22.3136 -22.3133 ... -22.3119

Optimal solution found (tolerance 1.00e-04)
Best objective -2.231355543596e+01, best bound -2.231538849793e+01, gap 0.0082%

User-callback calls 15613, time in user-callback 0.00 sec



objective value: -22.313555435961533
objective bound: -22.315388497925213
x_opt: [0.0, 1.0, 1.0, 0.0, 0.0, 0.0, 1.0, 1.0, 0.0, 0.0, 0.26153529722164187, 0.3988797248419084, 0.0, 1.0, 1.0, 1.0, 0.0, 1.0, 0.0, 0.0, 1.9880861156749998e-5, 1.0, 1.0, 1.0, 0.0, 1.0, 1.0, 1.0, 0.0, 0.819446198611704, 1.0, 0.7248850151313898, 0.0, 0.19974090768443817, 1.0, 1.0, 0.9999600636835616, 1.0, 0.4991559085046767, 1.0, 0.8895677991334483, 0.11725024260753183, 1.0, 0.0, 0.0, 0.711618575710512, 0.14882783444622413, 0.00027134140799197276, 0.0, 1.0]
GUROBI solution time: 3.717849016189575

